single_objective/SL-DABL/OP/problems/op/OPLib-master/solutions/ea4op/gen4/berlin52-gen4-60.sol
NAME : berlin52
TYPE : OP
DIMENSION : 52
COST_LIMIT : 4526
ROUTE_NODES : 38
ROUTE_SCORE : 2085
ROUTE_COST : 4504
NODE_SEQUENCE_SECTION
1
49
32
45
19
41
8
10
43
12
28
27
26
25
4
6
15
5
24
48
38
37
40
39
36
35
34
44
16
50
20
23
30
21
17
3
18
22
-1
DEPOT_SECTION
1
-1
EOF
